zaligvinder/models/jsa2024/stringfuzz/complementcounting/complement_counting_120.smt2
(set-logic QF_SLIA)
(declare-fun var0 () String)
(assert (not (str.in_re var0 (re.++ ((_ re.loop 3 740) (re.++ (re.union (str.to_re "IZa") (re.union (str.to_re "o") (re.union (str.to_re "Z") (str.to_re "2]")))) (re.++ (re.union (str.to_re "|qo") (re.union (str.to_re "T@L") (re.union (str.to_re "o%") (str.to_re "Et")))) (re.++ (re.union (str.to_re "InZ") (re.union (str.to_re "8\u0022") (re.union (str.to_re "]v") (str.to_re "`?")))) (re.union (str.to_re "{U") (re.union (str.to_re "i~") (re.union (str.to_re "p") (str.to_re "O")))))))) (re.++ ((_ re.loop 17 87) (re.++ (re.union (str.to_re "LL,") (re.union (str.to_re "npc") (re.union (str.to_re "bd") (str.to_re "X")))) (re.++ (re.union (str.to_re "a,u") (re.union (str.to_re ">/") (re.union (str.to_re "&FM") (str.to_re "6")))) (re.++ (re.union (str.to_re "0B") (re.union (str.to_re "!") (re.union (str.to_re "F']") (str.to_re "I2")))) (re.union (str.to_re "+") (re.union (str.to_re "pu") (re.union (str.to_re "8Y") (str.to_re "Jy")))))))) (re.++ ((_ re.loop 4 342) (re.++ (re.union (str.to_re "gK1") (re.union (str.to_re "\u0022.") (re.union (str.to_re "Z") (str.to_re "G/6")))) (re.++ (re.union (str.to_re "@") (re.union (str.to_re "}aW") (re.union (str.to_re "v") (str.to_re "NJ")))) (re.++ (re.union (str.to_re "V") (re.union (str.to_re "1lX") (re.union (str.to_re "Cpq") (str.to_re "!O")))) (re.union (str.to_re "qcz") (re.union (str.to_re "H") (re.union (str.to_re "j") (str.to_re "+")))))))) ((_ re.loop 7 812) (re.++ (re.union (str.to_re "qa") (re.union (str.to_re "D|") (re.union (str.to_re "T") (str.to_re "o")))) (re.++ (re.union (str.to_re "|#") (re.union (str.to_re "l") (re.union (str.to_re "9") (str.to_re "cP)")))) (re.++ (re.union (str.to_re "Mi5") (re.union (str.to_re "Cx") (re.union (str.to_re "O") (str.to_re ".5H")))) (re.union (str.to_re "+H") (re.union (str.to_re "JE6") (re.union (str.to_re "dBB") (str.to_re "^4O"))))))))))))))
(assert (not (str.in_re var0 (re.++ ((_ re.loop 10 87) (re.++ (re.union (str.to_re "x&") (re.union (str.to_re "7S") (re.union (str.to_re "t") (str.to_re "%")))) (re.++ (re.union (str.to_re "SS<") (re.union (str.to_re ":``") (re.union (str.to_re "o>E") (str.to_re "Ln")))) (re.++ (re.union (str.to_re "^a") (re.union (str.to_re "(") (re.union (str.to_re "j:(") (str.to_re "S")))) (re.union (str.to_re "e") (re.union (str.to_re "&N,") (re.union (str.to_re "SMu") (str.to_re "?PV")))))))) (re.++ ((_ re.loop 20 804) (re.++ (re.union (str.to_re "+L") (re.union (str.to_re "m") (re.union (str.to_re "7#5") (str.to_re "x(H")))) (re.++ (re.union (str.to_re "8$w") (re.union (str.to_re "A$") (re.union (str.to_re "T") (str.to_re "\u0022")))) (re.++ (re.union (str.to_re "=4") (re.union (str.to_re "(z") (re.union (str.to_re "7") (str.to_re "(e")))) (re.union (str.to_re "k\\b") (re.union (str.to_re ";12") (re.union (str.to_re "}W;") (str.to_re "!`")))))))) (re.++ ((_ re.loop 3 486) (re.++ (re.union (str.to_re "C:") (re.union (str.to_re "T") (re.union (str.to_re "f") (str.to_re "N^")))) (re.++ (re.union (str.to_re "._") (re.union (str.to_re "K!w") (re.union (str.to_re "2u1") (str.to_re "eo")))) (re.++ (re.union (str.to_re "3") (re.union (str.to_re "|]") (re.union (str.to_re "F}") (str.to_re "!c")))) (re.union (str.to_re "Aes") (re.union (str.to_re "[we") (re.union (str.to_re "6") (str.to_re "J\\!")))))))) ((_ re.loop 6 93) (re.++ (re.union (str.to_re "%N") (re.union (str.to_re "p") (re.union (str.to_re "ug]") (str.to_re "AmU")))) (re.++ (re.union (str.to_re "2B") (re.union (str.to_re "!") (re.union (str.to_re "\\") (str.to_re "NL^")))) (re.++ (re.union (str.to_re "H") (re.union (str.to_re "}FD") (re.union (str.to_re "P&<") (str.to_re "q%I")))) (re.union (str.to_re "Pcx") (re.union (str.to_re "fp") (re.union (str.to_re "W\\") (str.to_re "pF,"))))))))))))))
(assert (not (str.in_re var0 (re.++ (re.* re.allchar) (re.++ (re.union (str.to_re "<") (re.union (str.to_re ">") (re.union (str.to_re "'") (re.union (str.to_re "\u0022") (str.to_re "&"))))) (re.* re.allchar))))))
(assert (<= 50 (str.len var0)))
(check-sat)
(get-model)
